l=10359;
a=5;
setup_costs=[|23,0,8,7,11,
|0,18,16,3,5,
|8,16,12,20,7,
|7,3,20,14,9,
|11,5,7,9,2,
|0,0,0,0,0|];
setup_times=[|10,15,22,0,23,
|15,21,23,12,14,
|22,23,9,4,25,
|0,12,4,25,23,
|23,14,25,23,19,
|0,0,0,0,0|];
m=5;
min_cap=[0,0,0,0,0];
max_cap=[86,59,8,19,15];

initState=[3,4,1,2,1];
s=3;
m_a_s = [|0,2064,3922,
|0,0,1527,
|1235,3171,4034,
|0,18,2839,
|0,545,9760|];
m_a_e = [|0,3725,8905,
|0,0,8943,
|2827,3892,10212,
|0,2340,9387,
|0,9319,10310|];
n=100;
eligible_machine = [{3,1,2},
{2,4},
{2,4,5},
{5,1,3,4},
{3,1,4},
{5,2,3},
{4,2,3},
{3,1,4,5},
{5,1,4},
{1,2,5},
{2,3},
{1,4,5},
{5,2,3},
{2,1,3,4},
{1,2,5},
{3,4},
{3,2,5},
{2,3,4,5},
{5,3,4},
{4,3,5},
{3,1,4,5},
{4,3},
{2,1,3},
{3,1,2,5},
{3,1,4},
{4,3,5},
{4,2,5},
{5,4},
{4,2,3,5},
{4,3,5},
{1,2,4,5},
{3,2,4,5},
{2},
{2,3,5},
{5},
{1,2,4},
{5,3},
{2,1,4},
{4,1,2,3,5},
{5,1,3},
{5,1,2,3,4},
{4,2,3},
{4,2,5},
{2,1,5},
{2,3,4},
{2,1,3,4},
{3,1,4},
{5},
{2,4,5},
{5,1,3},
{1,2,3,5},
{4,1,2},
{4,5},
{3,1,5},
{5,2,3},
{5,4},
{4},
{2,1,3,4,5},
{5},
{1,2,4},
{2,3,5},
{5,3},
{2,4},
{3,5},
{3,2},
{4,3,5},
{5},
{5,2,4},
{2,1},
{2,3,4},
{2,1,3},
{2,1,4},
{1,2},
{4,2,5},
{3,1,2,4},
{4,2},
{5,2,4},
{3,2,4},
{3,2,4,5},
{4},
{3,1},
{3,1,4},
{5,1,3},
{5,1,2,3},
{3,1,4,5},
{5,1},
{5,3},
{1,2,4,5},
{4,3},
{1,2,4},
{1,3,4,5},
{5,1,2,3,4},
{5,1,2,3,4},
{5,2,4},
{1,2,3},
{5,1,2,4},
{5,1,2},
{4,1,2,3,5},
{3,1,2,4},
{1,5}];
earliest_start=[293,39,162,181,168,315,8,94,96,452,161,300,79,434,433,379,134,431,99,96,458,236,132,36,403,266,336,61,22,140,220,391,121,464,27,294,361,361,366,285,272,291,408,122,52,403,55,407,305,154,485,406,130,390,277,56,398,125,269,393,471,439,72,448,232,261,178,106,406,138,18,265,65,305,316,167,320,9,476,0,211,421,248,359,147,305,260,223,186,462,388,235,91,464,306,325,218,451,382,282];
latest_end=[440,434,247,216,343,679,32,184,230,660,478,362,418,504,497,633,237,586,126,189,702,288,521,360,615,357,692,173,63,261,276,406,338,524,33,347,597,441,379,716,423,540,513,495,145,424,225,679,392,192,490,590,273,601,313,335,731,254,474,609,657,541,503,587,344,374,255,167,506,236,361,418,188,352,471,201,432,43,566,150,522,439,261,381,255,494,553,235,258,596,508,285,376,686,328,402,395,627,756,487];
min_time=[75,84,26,29,76,75,10,21,69,99,83,28,68,54,53,69,64,70,6,19,82,16,100,66,76,20,91,73,25,26,22,11,77,24,3,28,88,25,7,93,64,67,90,76,22,11,52,84,62,16,4,65,33,75,8,59,85,61,54,56,84,38,97,43,77,72,51,44,51,26,82,40,63,14,55,16,27,24,45,66,68,7,11,9,23,58,79,3,17,44,43,28,72,51,9,26,71,47,99,50];
max_time=[100,100,100,100,100,100,100,100,100,100,100,100,100,100,100,100,100,100,100,100,100,100,100,100,100,100,100,100,100,100,100,100,100,100,100,100,100,100,100,100,100,100,100,100,100,100,100,100,100,100,100,100,100,100,100,100,100,100,100,100,100,100,100,100,100,100,100,100,100,100,100,100,100,100,100,100,100,100,100,100,100,100,100,100,100,100,100,100,100,100,100,100,100,100,100,100,100,100,100,100];
size=[2,5,3,1,4,4,4,5,1,1,2,2,3,5,1,2,5,2,4,5,3,5,1,5,5,2,5,2,1,2,1,1,1,4,4,3,4,5,1,4,1,5,3,3,3,2,2,5,5,1,1,2,1,1,3,3,4,3,5,4,1,5,5,3,5,1,1,4,2,1,2,5,4,1,5,2,2,2,1,1,5,5,1,3,2,2,1,2,3,5,4,3,1,4,1,3,2,1,3,4];
attribute=[5,4,3,1,2,3,2,3,4,2,3,2,1,2,1,4,1,3,4,3,3,5,2,3,1,3,2,3,1,2,1,5,1,2,3,2,1,4,2,5,3,3,5,5,3,2,5,2,3,2,5,1,4,5,1,2,5,5,1,2,5,1,3,3,2,2,4,5,4,5,1,5,1,2,5,4,3,4,3,1,1,3,1,1,5,2,5,5,2,1,2,5,5,2,1,3,3,5,4,2];

upper_bound_integer_objective=1140159305;
mult_factor_total_runtime=232401;
mult_factor_finished_toolate=2301;
mult_factor_total_setuptimes=0;
mult_factor_total_setupcosts=1;
running_time_bound=4905;
min_duration=3;
max_duration=100;
max_setup_time=25;
max_setup_cost=23;
